NAME : explosion
TYPE : TSP
DIMENSION : 50
EDGE_WEIGHT_TYPE : EUC_2D
NODE_COORD_SECTION
1 789813 289691
2 209519 243822
3 544005 193123
4 645883 193081
5 140311 896459
6 165165 873180
7 166848 248339
8 948277 916406
9 906141 339197
10 176829 287295
11 582638 794724
12 68745 276815
13 536156 471458
14 179908 891756
15 134863 126407
16 481684 225106
17 624024 854236
18 147624 465872
19 948058 83801
20 613866 8775
21 694844 11881
22 681442 250300
23 645742 32871
24 992840 2804
25 78149 414932
26 485905 865210
27 534187 912753
28 501635 232713
29 88933 328935
30 924641 866377
31 600065 82418
32 786112 927750
33 690793 904883
34 620549 839948
35 938702 284944
36 658060 932166
37 77406 985215
38 734473 447959
39 111821 100355
40 159270 491823
41 901114 952220
42 151260 100456
43 1127 724483
44 317771 466378
45 555625 84323
46 507836 898856
47 888280 988766
48 63616 292382
49 100269 75739
50 837717 913999
EOF
